100
128
61
33
26
7
37
27
53
6
4
52
60
15
14
32
35
17
12
16
46
38
43
63
30
54
26
29
40
10
20
58
35
41
40
47
17
28
62
38
40
44
44
23
52
52
35
37
16
39
32
18
7
38
43
22
62
37
20
36
53
44
35
48
30
64
32
48
31
47
48
29
38
30
59
32
52
14
62
52
26
50
31
61
24
48
36
42
33
35
49
46
24
58
43
38
34
56
3
53
46
29